
******************************************************************************
This program contains Ipopt, a library for large-scale nonlinear optimization.
 Ipopt is released as open source code under the Eclipse Public License (EPL).
         For more information visit http://projects.coin-or.org/Ipopt

This version of Ipopt was compiled from source code available at
    https://github.com/IDAES/Ipopt as part of the Institute for the Design of
    Advanced Energy Systems Process Systems Engineering Framework (IDAES PSE
    Framework) Copyright (c) 2018-2019. See https://github.com/IDAES/idaes-pse.

This version of Ipopt was compiled using HSL, a collection of Fortran codes
    for large-scale scientific computation.  All technical papers, sales and
    publicity material resulting from use of the HSL codes within IPOPT must
    contain the following acknowledgement:
        HSL, a collection of Fortran codes for large-scale scientific
        computation. See http://www.hsl.rl.ac.uk.
******************************************************************************

This is Ipopt version 3.13.2, running with linear solver ma27.

Number of nonzeros in equality constraint Jacobian...:     1172
Number of nonzeros in inequality constraint Jacobian.:        0
Number of nonzeros in Lagrangian Hessian.............:     1333

Total number of variables............................:      465
                     variables with only lower bounds:      124
                variables with lower and upper bounds:      279
                     variables with only upper bounds:        0
Total number of equality constraints.................:      462
Total number of inequality constraints...............:        0
        inequality constraints with only lower bounds:        0
   inequality constraints with lower and upper bounds:        0
        inequality constraints with only upper bounds:        0

iter    objective    inf_pr   inf_du lg(mu)  ||d||  lg(rg) alpha_du alpha_pr  ls
   0  0.0000000e+00 1.43e+00 7.11e-15  -1.0 0.00e+00    -  0.00e+00 0.00e+00   0
   1  2.7807379e-02 1.00e+00 1.43e+03  -1.0 6.56e+04    -  5.41e-01 3.24e-01h  2
   2  1.0897347e-01 6.13e-01 9.51e+03  -1.0 4.60e+04    -  2.57e-01 4.15e-01h  1
   3  1.1124280e-01 6.05e-01 9.54e+03  -1.0 3.24e+04    -  4.07e-01 1.27e-02h  1
   4  1.5238011e-01 9.31e-01 7.88e+04  -1.0 6.41e+04    -  1.81e-01 1.47e-01H  1
   5  1.9588833e-01 7.86e-01 7.05e+04  -1.0 4.59e+04    -  2.98e-01 1.24e-01h  4
   6  2.0080002e-01 7.74e-01 6.94e+04  -1.0 3.66e+04    -  5.29e-01 1.55e-02h  7
   7  2.0334776e-01 7.68e-01 6.88e+04  -1.0 4.35e+04    -  7.66e-01 7.73e-03h  8
   8  2.0483658e-01 7.65e-01 6.85e+04  -1.0 7.30e+04    -  8.36e-01 3.87e-03h  9
   9  2.0496463e-01 7.65e-01 6.84e+04  -1.0 1.66e+05    -  8.78e-01 2.42e-04h 13
iter    objective    inf_pr   inf_du lg(mu)  ||d||  lg(rg) alpha_du alpha_pr  ls
  10  2.0501133e-01 7.65e-01 6.84e+04  -1.0 3.99e+05    -  4.91e-01 6.04e-05h 15
  11  2.0503685e-01 7.65e-01 6.84e+04  -1.0 4.67e+05    -  4.27e-01 3.02e-05h 16
  12  4.2243316e+01 1.21e+02 4.62e+05  -1.0 5.12e+05    -  9.90e-01 9.90e-01s 22
  13r 4.2243316e+01 1.21e+02 9.99e+02   2.1 0.00e+00  -4.0 0.00e+00 0.00e+00R  1
  14r 4.2243120e+01 1.05e+01 5.81e+03   2.1 3.17e+04    -  8.01e-03 3.79e-03f  1
  15r 4.2243078e+01 9.90e+00 5.44e+03   1.4 1.24e+03    -  4.64e-02 3.25e-03f  1
  16r 4.2242510e+01 3.63e+00 1.47e+04   1.4 1.39e+03    -  5.83e-01 4.55e-02f  1
  17r 4.2241472e+01 3.02e+00 1.39e+04   1.4 1.46e+02    -  1.00e+00 1.58e-01f  1
  18r 4.2237347e+01 8.01e-01 1.08e+04   1.4 7.73e+01    -  1.00e+00 9.30e-01f  1
  19  3.3168622e+01 1.24e-01 2.69e+02  -1.0 2.15e+05    -  6.34e-01 9.90e-01h  1
iter    objective    inf_pr   inf_du lg(mu)  ||d||  lg(rg) alpha_du alpha_pr  ls
  20  2.1847263e+01 8.87e-02 6.20e+03  -1.0 2.25e+05    -  4.57e-01 9.90e-01h  1
  21  1.1191450e+01 1.34e-01 4.56e+05  -1.0 1.46e+05    -  5.77e-01 9.90e-01H  1
  22  1.2088597e+01 1.31e-02 1.85e+06  -1.0 4.87e+04    -  9.73e-01 9.90e-01h  1
  23  1.1910262e+01 1.37e-03 1.11e+08  -1.0 7.07e+03    -  1.00e+00 9.90e-01h  1
  24  1.1920016e+01 1.33e-05 1.11e+10  -1.0 1.85e+02    -  1.00e+00 9.90e-01h  1
In iteration 24, 7 Slacks too small, adjusting variable bounds
  25  1.1920112e+01 1.33e-07 1.11e+12  -1.0 1.82e+00    -  1.00e+00 9.90e-01h  1
In iteration 25, 24 Slacks too small, adjusting variable bounds
  26  1.1920113e+01 1.33e-09 2.24e+12  -1.0 1.82e-02    -  1.00e+00 9.90e-01h  1
  27  1.1920113e+01 3.31e-12 1.51e-02  -1.0 1.82e-04    -  1.00e+00 1.00e+00h  1
  28  1.1919649e+01 1.13e-09 2.08e+12  -9.0 4.91e+04    -  9.10e-01 2.44e-04f 13
  29  1.1919487e+01 1.27e-09 2.26e+12  -9.0 6.90e+04    -  8.77e-01 6.10e-05f 15
iter    objective    inf_pr   inf_du lg(mu)  ||d||  lg(rg) alpha_du alpha_pr  ls
  30  1.1919396e+01 1.32e-09 2.29e+12  -9.0 7.83e+04    -  8.64e-01 3.05e-05f 16
  31  1.1919347e+01 1.33e-09 2.29e+12  -9.0 8.38e+04    -  8.70e-01 1.53e-05f 17
  32  1.1919296e+01 1.35e-09 2.29e+12  -9.0 8.74e+04    -  8.97e-01 1.53e-05f 17
  33  9.2900397e+00 5.62e-02 2.76e+06  -9.0 8.99e+04    -  9.40e-01 1.00e+00f  1
  34  9.2901192e+00 5.41e-02 4.86e+04  -9.0 2.02e+04    -  9.82e-01 3.80e-02h  5
  35  9.2922230e+00 5.28e-02 1.56e+00  -9.0 1.53e+04    -  1.00e+00 2.31e-02h  6
  36  9.2922826e+00 5.28e-02 1.56e+00  -9.0 1.49e+04    -  1.00e+00 4.23e-04h 12
  37  9.2923014e+00 5.28e-02 1.56e+00  -9.0 1.49e+04    -  1.00e+00 1.15e-04h 14
  38  9.2923116e+00 5.28e-02 1.56e+00  -9.0 1.49e+04    -  1.00e+00 5.97e-05h 15
  39  9.2923169e+00 5.28e-02 1.56e+00  -9.0 1.48e+04    -  1.00e+00 3.03e-05h 16
iter    objective    inf_pr   inf_du lg(mu)  ||d||  lg(rg) alpha_du alpha_pr  ls
  40  9.2923196e+00 5.28e-02 1.56e+00  -9.0 1.48e+04    -  1.00e+00 1.52e-05h 17
  41  9.4911393e+00 5.83e+00 1.60e-01  -9.0 1.48e+04    -  9.99e-01 9.99e-01s 22
  42  9.5003244e+00 1.87e+00 5.30e-04  -9.0 6.95e+02    -  9.99e-01 9.99e-01s 22
  43  9.5003257e+00 3.92e-01 5.17e-04  -9.0 5.20e+01    -  1.00e+00 0.00e+00S 22
  44  9.5003257e+00 2.80e-02 2.01e-05  -9.0 1.75e+01    -  1.00e+00 1.00e+00h  1
  45  9.5003257e+00 1.70e-04 2.57e-07  -9.0 1.45e+00    -  1.00e+00 1.00e+00h  1
  46  9.5003257e+00 6.35e-09 1.98e-11  -9.0 8.93e-03    -  1.00e+00 1.00e+00h  1

Number of Iterations....: 46

                                   (scaled)                 (unscaled)
Objective...............:   9.5003257256381612e+00    9.5003257256381612e+00
Dual infeasibility......:   1.9779938897971594e-11    1.9779938897971594e-11
Constraint violation....:   6.3462279875636796e-09    6.3462279875636796e-09
Complementarity.........:   9.0909090980210410e-10    9.0909090980210410e-10
Overall NLP error.......:   6.3462279875636796e-09    6.3462279875636796e-09


Number of objective function evaluations             = 354
Number of objective gradient evaluations             = 43
Number of equality constraint evaluations            = 354
Number of inequality constraint evaluations          = 0
Number of equality constraint Jacobian evaluations   = 48
Number of inequality constraint Jacobian evaluations = 0
Number of Lagrangian Hessian evaluations             = 46
Total CPU secs in IPOPT (w/o function evaluations)   =      0.097
Total CPU secs in NLP function evaluations           =      3.026

EXIT: Optimal Solution Found.
